data;

set A := 725757 566297 72760 144342 843343 316440 285965 926202 996234 977847 277920 997233 276856 893070 89661 402365 819315 744599 497568 227616 255592 895596 757175 652382 253079 96524 744417 72895 342032 950230 718065 407049 267062 498763 389738 288649 383168 509584 410820 124875 71666 592617 552037 225885 255464 688191 401705 748944 491212 608923 512475 700470 508698 968296 888504 722212 124770 155828 349426 471089 234118 226734 886251 259509 588215 445993 590005 2955 104315 360216 303064 306574 107114 845647 898444 448351 110508 578696 228538 961693 334588 265883 345918 464234 333223 488259 776039 348077 790541 191648 643509 184970;
param T := 23000000;

end;
